SCIP Status        : problem creation / modification
Total Time         :       0.05
  reading          :       0.05
Original Problem   :
  Problem name     : main4.zpl
  Variables        : 4020 (4020 binary, 0 integer, 0 implicit integer, 0 continuous)
  Constraints      : 0 initial, 4220 maximal
  Objective        : minimize, 4020 non-zeros (abs.min = 0.00068, abs.max = 5700)
